00 07 26 23 18 68 27 25 34 32
07 00 72 76 49 66 58 02 52 77
26 72 00 17 93 27 31 80 38 36
23 76 17 00 26 82 78 43 07 47
18 49 93 26 00 56 97 30 87 99
68 66 27 82 56 00 59 10 87 97
27 58 31 78 97 59 00 61 48 99
25 02 80 43 30 10 61 00 79 01
34 52 38 07 87 87 48 79 00 47
32 77 36 47 99 97 99 01 47 00
